results_rootrelaxation/bin012_070_021.srr.sol
solution status: optimal solution found
objective value:                                    8
_var497_                           0.0125664572257142 	(obj:1)
_var668_                           0.0459159014016449 	(obj:1)
_var677_                            0.236829386176897 	(obj:0)
_var695_                          0.00144997583373601 	(obj:1)
_var713_                            0.604156597390044 	(obj:1)
_var721_                            0.556307394876752 	(obj:1)
_var734_                           0.0188496858385696 	(obj:1)
_var746_                            0.206863218946351 	(obj:0)
_var748_                            0.218946350894152 	(obj:0)
_var758_                            0.286611889801837 	(obj:1)
_var760_                            0.340744320927986 	(obj:0)
_var761_                            0.235379410343162 	(obj:0)
_var762_                           0.0280328661188981 	(obj:2)
_var767_                            0.091348477525373 	(obj:1)
_var769_                             0.11841469308845 	(obj:2)
_var772_                           0.0207829869502174 	(obj:2)
_var773_                            0.085548574190432 	(obj:1)
_var775_                           0.0299661672305453 	(obj:1)
_var781_                            0.335911068148864 	(obj:0)
_var782_                            0.178830352827452 	(obj:0)
_var786_                             0.15901401643306 	(obj:1)
_var790_                            0.187530207829869 	(obj:1)
_var791_                            0.296761720637989 	(obj:1)
_var796_                            0.100531657805702 	(obj:1)
_var800_                            0.347027549540841 	(obj:1)
_var802_                           0.0202996616723055 	(obj:2)
_var803_                            0.208313194780087 	(obj:0)
_var805_                            0.186080231996133 	(obj:0)
_var806_                            0.326244562590623 	(obj:1)
_var808_                            0.208313194780087 	(obj:1)
_var810_                             0.63412276462059 	(obj:0)
_var811_                            0.351377477042049 	(obj:0)
_var816_                           0.0502658289028509 	(obj:0)
_var817_                             0.12131464475592 	(obj:2)
_var819_                            0.415176413726437 	(obj:1)
_var821_                            0.345577573707105 	(obj:1)
_var822_                            0.145480908651523 	(obj:1)
_var823_                          0.00144997583373588 	(obj:0)
_var836_                            0.236829386176897 	(obj:0)
_var837_                            0.129047849202513 	(obj:0)
_var840_                            0.141130981150314 	(obj:0)
_var843_                           0.0202996616723055 	(obj:1)
_var846_                           0.0758820686321887 	(obj:2)
_var851_                            0.443692605123248 	(obj:1)
_var857_                            0.061382310294828 	(obj:2)
_var861_                             0.35186080231996 	(obj:1)
_var862_                            0.106331561140648 	(obj:1)
_var867_                            0.108748187530207 	(obj:2)
_var869_                           0.0280328661188982 	(obj:1)
_var870_                            0.107298211696473 	(obj:2)
_var871_                           0.0889318511358145 	(obj:0)
_var873_                            0.206863218946352 	(obj:1)
_var878_                            0.309811503141614 	(obj:1)
_var879_                            0.198646689221845 	(obj:1)
_var880_                            0.119381343644273 	(obj:1)
_var881_                            0.029966167230547 	(obj:1)
_var884_                           0.0318994683421936 	(obj:2)
_var885_                           0.0135331077815378 	(obj:1)
_var886_                            0.187530207829869 	(obj:1)
_var887_                            0.086998550024166 	(obj:2)
_var889_                            0.157564040599324 	(obj:1)
